57 69 97 95 8 66 30 4 43 71 11 44 87 74 64 50 70 56 92 89 55 10 86 24 35 88 83 31 9 47 36 82 51 23 1 22 75 58 61 14 13 38 48 65 80 77 0 37 99 40 7 28 26 93 84 21 42 34 67 94 6 62 39 63 52 60 78 72 85 17 76 32 81 79 49 5 18 90 15 3 59 73 16 46 53 2 41 29 45 91 68 54 25 19 27 20 98 12 96 33 

